words_easy_train/words_931_SAT.qaiger
aag 83 24 0 1 59
24
48
36
44
40
16
46
6
30
42
18
2
20
26
32
12
28
4
10
38
14
34
22
8
167
50 37 35
52 50 39
54 52 41
56 54 43
58 56 45
60 58 47
62 33 17
64 62 49
66 63 48
68 67 65
70 68 60
72 23 7
74 51 38
76 75 53
78 76 73
80 77 72
82 81 79
84 83 71
86 69 61
88 31 15
90 59 46
92 91 61
94 92 88
96 95 87
98 96 84
100 93 89
102 25 9
104 53 40
106 105 55
108 107 102
110 106 103
112 111 109
114 19 3
116 21 5
118 116 37
120 117 36
122 121 119
124 123 115
126 114 34
128 122 35
130 129 127
132 130 125
134 132 113
136 27 11
138 55 42
140 139 57
142 140 137
144 141 136
146 145 143
148 147 134
150 29 13
152 57 44
154 153 59
156 154 150
158 155 151
160 159 157
162 160 148
164 162 101
166 164 98
i0 1 x1[3]
i1 2 y1[7]
i2 2 y1[1]
i3 2 y1[5]
i4 2 y1[3]
i5 1 x2[7]
i6 2 y1[6]
i7 1 x2[2]
i8 1 x1[6]
i9 2 y1[4]
i10 1 x1[0]
i11 1 x2[0]
i12 1 x1[1]
i13 1 x1[4]
i14 1 x1[7]
i15 1 x2[5]
i16 1 x1[5]
i17 1 x2[1]
i18 1 x2[4]
i19 2 y1[2]
i20 1 x2[6]
i21 2 y1[0]
i22 1 x1[2]
i23 1 x2[3]
o0 bool[0]
c
simplified
  !=
    or
      1 x2
      1 x1
    unary minus
      2 y1
