words_easy_train/words_931_SAT.qaiger.qdimacs
p cnf 83 178
a 1 2 3 4 5 6 7 8 9 10 11 12 13 14 15 16 0
e 17 18 19 20 21 22 23 24 25 26 27 28 29 30 31 32 33 34 35 36 37 38 39 40 41 42 43 44 45 46 47 48 49 50 51 52 53 54 55 56 57 58 59 60 61 62 63 64 65 66 67 68 69 70 71 72 73 74 75 76 77 78 79 80 81 82 83 0
18 17 25 0
-18 -25 0
-17 -25 0
-25 19 26 0
25 -26 0
-19 -26 0
-26 20 27 0
26 -27 0
-20 -27 0
-27 21 28 0
27 -28 0
-21 -28 0
-28 22 29 0
28 -29 0
-22 -29 0
-29 23 30 0
29 -30 0
-23 -30 0
16 8 31 0
-16 -31 0
-8 -31 0
-31 24 32 0
31 -32 0
-24 -32 0
31 -24 33 0
-31 -33 0
24 -33 0
33 32 34 0
-33 -34 0
-32 -34 0
-34 -30 35 0
34 -35 0
30 -35 0
11 3 36 0
-11 -36 0
-3 -36 0
25 -19 37 0
-25 -37 0
19 -37 0
37 26 38 0
-37 -38 0
-26 -38 0
-38 36 39 0
38 -39 0
-36 -39 0
38 -36 40 0
-38 -40 0
36 -40 0
40 39 41 0
-40 -41 0
-39 -41 0
41 35 42 0
-41 -42 0
-35 -42 0
34 30 43 0
-34 -43 0
-30 -43 0
15 7 44 0
-15 -44 0
-7 -44 0
29 -23 45 0
-29 -45 0
23 -45 0
45 30 46 0
-45 -46 0
-30 -46 0
-46 -44 47 0
46 -47 0
44 -47 0
47 43 48 0
-47 -48 0
-43 -48 0
-48 -42 49 0
48 -49 0
42 -49 0
46 44 50 0
-46 -50 0
-44 -50 0
12 4 51 0
-12 -51 0
-4 -51 0
26 -20 52 0
-26 -52 0
20 -52 0
52 27 53 0
-52 -53 0
-27 -53 0
53 -51 54 0
-53 -54 0
51 -54 0
-53 51 55 0
53 -55 0
-51 -55 0
55 54 56 0
-55 -56 0
-54 -56 0
9 1 57 0
-9 -57 0
-1 -57 0
10 2 58 0
-10 -58 0
-2 -58 0
-58 18 59 0
58 -59 0
-18 -59 0
58 -18 60 0
-58 -60 0
18 -60 0
60 59 61 0
-60 -61 0
-59 -61 0
61 57 62 0
-61 -62 0
-57 -62 0
-57 -17 63 0
57 -63 0
17 -63 0
-61 17 64 0
61 -64 0
-17 -64 0
64 63 65 0
-64 -65 0
-63 -65 0
-65 62 66 0
65 -66 0
-62 -66 0
-66 56 67 0
66 -67 0
-56 -67 0
13 5 68 0
-13 -68 0
-5 -68 0
27 -21 69 0
-27 -69 0
21 -69 0
69 28 70 0
-69 -70 0
-28 -70 0
-70 68 71 0
70 -71 0
-68 -71 0
70 -68 72 0
-70 -72 0
68 -72 0
72 71 73 0
-72 -73 0
-71 -73 0
73 -67 74 0
-73 -74 0
67 -74 0
14 6 75 0
-14 -75 0
-6 -75 0
28 -22 76 0
-28 -76 0
22 -76 0
76 29 77 0
-76 -77 0
-29 -77 0
-77 -75 78 0
77 -78 0
75 -78 0
77 75 79 0
-77 -79 0
-75 -79 0
79 78 80 0
-79 -80 0
-78 -80 0
-80 -74 81 0
80 -81 0
74 -81 0
-81 50 82 0
81 -82 0
-50 -82 0
-82 -49 83 0
82 -83 0
49 -83 0
-83 0
